QPLIB_2758
LCQ
minimize
303 # number of variables
251 # number of constraints
0.0 # default value for linear coefficients in objective
7 # number of non-default linear coefficients in objective
1 1.0
2 1.0
3 1.0
4 1.0
5 1.0
6 1.0
7 1.0
0.0 # objective constant
112 # number of quadratic terms in all constraints
140 10 1 2.0
141 1 1 2.0
142 1 1 2.0
143 1 1 2.0
144 1027 1 2.0
145 39195137 1 2.0
146 1 1 2.0
147 34 1 2.0
148 10 1 2.0
149 1818576901 1 2.0
150 32625 1 2.0
151 1 -494531719 2.0
152 32745 1027 2.0
153 39195137 33 2.0
154 1 1 2.0
155 50 34 2.0
156 1 1 2.0
157 1818576901 1651076122 2.0
158 1852403556 32625 2.0
159 1768711012 -494531719 2.0
160 775173731 32745 2.0
161 1646292852 33 2.0
162 824209008 1 2.0
163 12321 50 2.0
164 1 1 2.0
165 1651076122 1 2.0
166 1852403556 1 2.0
167 1768711012 50 2.0
168 775173731 1 2.0
169 1651076122 1646292852 2.0
170 1852403556 824209008 2.0
171 1768711012 12321 2.0
172 775173731 1 2.0
173 1663070068 1 2.0
174 824206179 1 2.0
175 12321 50 2.0
176 1 1 2.0
177 1651076122 1 2.0
178 1852403556 1 2.0
179 1768711012 50 2.0
180 775173731 1 2.0
181 1663070068 1651076122 2.0
182 1852403556 824206179 2.0
183 1768711012 12321 2.0
184 775173731 1 2.0
185 1646292852 1 2.0
186 824209008 1 2.0
187 12321 50 2.0
188 1 1 2.0
189 1651076122 39190529 2.0
190 1852403556 1 2.0
191 1768711012 50 2.0
192 775173731 1 2.0
193 1651076122 1646292852 2.0
194 1852403556 824209008 2.0
195 1768711012 12321 2.0
196 775173731 1 2.0
197 1663070068 39190529 2.0
198 824206179 1 2.0
199 12321 50 2.0
200 1 1 2.0
201 1651076122 193 2.0
202 1852403556 1 2.0
203 1768711012 50 2.0
204 775173731 1 2.0
205 1663070068 1651076122 2.0
206 1852403556 824206179 2.0
207 1768711012 12321 2.0
208 775173731 1 2.0
209 1663070068 193 2.0
210 824210800 1 2.0
211 50 -494587871 2.0
212 32745 1 2.0
213 1651076122 1 2.0
214 1852403556 1 2.0
215 1768711012 50 2.0
216 775173731 1 2.0
217 1663070068 1651076122 2.0
218 1852403556 824210800 2.0
219 1768711012 -494587871 2.0
220 775173731 32745 2.0
221 1763733364 1 2.0
222 824209265 1 2.0
223 12321 50 2.0
224 1 1 2.0
225 1651076122 1 2.0
226 1852403556 1 2.0
227 1768711012 50 2.0
228 775173731 1 2.0
229 1763733364 1651076122 2.0
230 1852403556 824209265 2.0
231 1768711012 12321 2.0
232 775173731 1 2.0
233 1864396660 1 2.0
234 824205172 1 2.0
235 12321 50 2.0
236 1 1 2.0
237 1651076122 1 2.0
238 1852403556 1 2.0
239 1768711012 50 2.0
240 775173731 1 2.0
241 1864396660 1651076122 2.0
242 1852403556 824205172 2.0
243 1768711012 12321 2.0
244 775173731 1 2.0
245 1931505524 1 2.0
246 824209508 1 2.0
247 50 -494522079 2.0
248 32745 1 2.0
249 1651076122 385 2.0
250 1852403556 1 2.0
251 1768711012 50 2.0
873 # number of linear terms in all constraints
1 8 -1.0
1 9 -1.0
1 10 -1.0
1 11 -1.0
1 12 -1.0
1 13 -1.0
1 14 -1.0
1 15 -1.0
2 16 -1.0
2 17 -1.0
2 18 -1.0
2 19 -1.0
2 20 -1.0
2 21 -1.0
2 22 -1.0
2 23 -1.0
3 24 -1.0
3 25 -1.0
3 26 -1.0
3 27 -1.0
3 28 -1.0
3 29 -1.0
3 30 -1.0
3 31 -1.0
4 32 -1.0
4 33 -1.0
4 34 -1.0
4 35 -1.0
4 36 -1.0
4 37 -1.0
4 38 -1.0
4 39 -1.0
5 40 -1.0
5 41 -1.0
5 42 -1.0
5 43 -1.0
5 44 -1.0
5 45 -1.0
5 46 -1.0
5 47 -1.0
6 1 1.0
6 9 -1.0
6 17 -1.0
6 25 -1.0
6 33 -1.0
6 41 -1.0
6 48 -1.0
6 49 -1.0
6 50 -1.0
6 51 -1.0
6 52 -1.0
6 53 -1.0
6 54 -1.0
7 2 1.0
7 10 -1.0
7 18 -1.0
7 26 -1.0
7 34 -1.0
7 42 -1.0
7 55 -1.0
7 56 -1.0
7 57 -1.0
7 58 -1.0
7 59 -1.0
7 60 -1.0
7 61 -1.0
8 3 1.0
8 11 -1.0
8 19 -1.0
8 27 -1.0
8 35 -1.0
8 43 -1.0
8 62 -1.0
8 63 -1.0
8 64 -1.0
8 65 -1.0
8 66 -1.0
8 67 -1.0
8 68 -1.0
9 4 1.0
9 12 -1.0
9 20 -1.0
9 28 -1.0
9 36 -1.0
9 44 -1.0
9 69 -1.0
9 70 -1.0
9 71 -1.0
9 72 -1.0
9 73 -1.0
9 74 -1.0
9 75 -1.0
10 5 1.0
10 13 -1.0
10 21 -1.0
10 29 -1.0
10 37 -1.0
10 45 -1.0
10 76 -1.0
10 77 -1.0
10 78 -1.0
10 79 -1.0
10 80 -1.0
10 81 -1.0
10 82 -1.0
11 6 1.0
11 14 -1.0
11 22 -1.0
11 30 -1.0
11 38 -1.0
11 46 -1.0
11 83 -1.0
11 84 -1.0
11 85 -1.0
11 86 -1.0
11 87 -1.0
11 88 -1.0
11 89 -1.0
12 7 1.0
12 15 -1.0
12 23 -1.0
12 31 -1.0
12 39 -1.0
12 47 -1.0
12 90 -1.0
12 91 -1.0
12 92 -1.0
12 93 -1.0
12 94 -1.0
12 95 -1.0
12 96 -1.0
13 1 1.0
13 48 -1.0
13 55 -1.0
13 62 -1.0
13 69 -1.0
13 76 -1.0
13 83 -1.0
13 90 -1.0
13 97 -1.0
14 2 1.0
14 49 -1.0
14 56 -1.0
14 63 -1.0
14 70 -1.0
14 77 -1.0
14 84 -1.0
14 91 -1.0
14 98 -1.0
15 3 1.0
15 50 -1.0
15 57 -1.0
15 64 -1.0
15 71 -1.0
15 78 -1.0
15 85 -1.0
15 92 -1.0
15 99 -1.0
16 4 1.0
16 51 -1.0
16 58 -1.0
16 65 -1.0
16 72 -1.0
16 79 -1.0
16 86 -1.0
16 93 -1.0
16 100 -1.0
17 5 1.0
17 52 -1.0
17 59 -1.0
17 66 -1.0
17 73 -1.0
17 80 -1.0
17 87 -1.0
17 94 -1.0
17 101 -1.0
18 6 1.0
18 53 -1.0
18 60 -1.0
18 67 -1.0
18 74 -1.0
18 81 -1.0
18 88 -1.0
18 95 -1.0
18 102 -1.0
19 7 1.0
19 54 -1.0
19 61 -1.0
19 68 -1.0
19 75 -1.0
19 82 -1.0
19 89 -1.0
19 96 -1.0
19 103 -1.0
20 8 -1.0
20 16 -1.0
20 24 -1.0
20 32 -1.0
20 40 -1.0
20 97 -1.0
20 98 -1.0
20 99 -1.0
20 100 -1.0
20 101 -1.0
20 102 -1.0
20 103 -1.0
20 104 1.0
21 105 -1.0
21 106 -1.0
21 107 -1.0
21 108 -1.0
21 109 -1.0
21 110 -1.0
21 111 -1.0
21 112 -1.0
22 113 -1.0
22 114 -1.0
22 115 -1.0
22 116 -1.0
22 117 -1.0
22 118 -1.0
22 119 -1.0
22 120 -1.0
23 121 -1.0
23 122 -1.0
23 123 -1.0
23 124 -1.0
23 125 -1.0
23 126 -1.0
23 127 -1.0
23 128 -1.0
24 129 -1.0
24 130 -1.0
24 131 -1.0
24 132 -1.0
24 133 -1.0
24 134 -1.0
24 135 -1.0
24 136 -1.0
25 137 -1.0
25 138 -1.0
25 139 -1.0
25 140 -1.0
25 141 -1.0
25 142 -1.0
25 143 -1.0
25 144 -1.0
26 106 -1.0
26 145 960.0
27 107 -1.0
27 146 960.0
28 108 -1.0
28 147 960.0
29 109 -1.0
29 148 960.0
30 110 -1.0
30 149 960.0
31 111 -1.0
31 150 960.0
32 112 -1.0
32 151 960.0
33 114 -1.0
33 152 22500.0
34 115 -1.0
34 153 22500.0
35 116 -1.0
35 154 22500.0
36 117 -1.0
36 155 22500.0
37 118 -1.0
37 156 22500.0
38 119 -1.0
38 157 22500.0
39 120 -1.0
39 158 22500.0
40 122 -1.0
40 159 115000.0
41 123 -1.0
41 160 115000.0
42 124 -1.0
42 161 115000.0
43 125 -1.0
43 162 115000.0
44 126 -1.0
44 163 115000.0
45 127 -1.0
45 164 115000.0
46 128 -1.0
46 165 115000.0
47 130 -1.0
47 166 36000.0
48 131 -1.0
48 167 36000.0
49 132 -1.0
49 168 36000.0
50 133 -1.0
50 169 36000.0
51 134 -1.0
51 170 36000.0
52 135 -1.0
52 171 36000.0
53 136 -1.0
53 172 36000.0
54 138 -1.0
54 173 39600.0
55 139 -1.0
55 174 39600.0
56 140 -1.0
56 175 39600.0
57 141 -1.0
57 176 39600.0
58 142 -1.0
58 177 39600.0
59 143 -1.0
59 178 39600.0
60 144 -1.0
60 179 39600.0
61 105 -1.0
61 180 960.0
62 113 -1.0
62 181 22500.0
63 121 -1.0
63 182 115000.0
64 129 -1.0
64 183 36000.0
65 137 -1.0
65 184 39600.0
66 9 -1.0
66 145 80.0
67 10 -1.0
67 146 80.0
68 11 -1.0
68 147 80.0
69 12 -1.0
69 148 80.0
70 13 -1.0
70 149 80.0
71 14 -1.0
71 150 80.0
72 15 -1.0
72 151 80.0
73 17 -1.0
73 152 450.0
74 18 -1.0
74 153 450.0
75 19 -1.0
75 154 450.0
76 20 -1.0
76 155 450.0
77 21 -1.0
77 156 450.0
78 22 -1.0
78 157 450.0
79 23 -1.0
79 158 450.0
80 25 -1.0
80 159 230.0
81 26 -1.0
81 160 230.0
82 27 -1.0
82 161 230.0
83 28 -1.0
83 162 230.0
84 29 -1.0
84 163 230.0
85 30 -1.0
85 164 230.0
86 31 -1.0
86 165 230.0
87 33 -1.0
87 166 90.0
88 34 -1.0
88 167 90.0
89 35 -1.0
89 168 90.0
90 36 -1.0
90 169 90.0
91 37 -1.0
91 170 90.0
92 38 -1.0
92 171 90.0
93 39 -1.0
93 172 90.0
94 41 -1.0
94 173 330.0
95 42 -1.0
95 174 330.0
96 43 -1.0
96 175 330.0
97 44 -1.0
97 176 330.0
98 45 -1.0
98 177 330.0
99 46 -1.0
99 178 330.0
100 47 -1.0
100 179 330.0
101 8 -1.0
101 180 80.0
102 16 -1.0
102 181 450.0
103 24 -1.0
103 182 230.0
104 32 -1.0
104 183 90.0
105 40 -1.0
105 184 330.0
106 145 1.0
106 146 1.0
106 147 1.0
106 148 1.0
106 149 1.0
106 150 1.0
106 151 1.0
106 180 1.0
107 152 1.0
107 153 1.0
107 154 1.0
107 155 1.0
107 156 1.0
107 157 1.0
107 158 1.0
107 181 1.0
108 159 1.0
108 160 1.0
108 161 1.0
108 162 1.0
108 163 1.0
108 164 1.0
108 165 1.0
108 182 1.0
109 166 1.0
109 167 1.0
109 168 1.0
109 169 1.0
109 170 1.0
109 171 1.0
109 172 1.0
109 183 1.0
110 173 1.0
110 174 1.0
110 175 1.0
110 176 1.0
110 177 1.0
110 178 1.0
110 179 1.0
110 184 1.0
111 1 -400.0
111 106 1.0
111 114 1.0
111 122 1.0
111 130 1.0
111 138 1.0
111 185 1.0
111 186 1.0
111 187 1.0
111 188 1.0
111 189 1.0
111 190 1.0
111 191 1.0
112 2 -100.0
112 107 1.0
112 115 1.0
112 123 1.0
112 131 1.0
112 139 1.0
112 192 1.0
112 193 1.0
112 194 1.0
112 195 1.0
112 196 1.0
112 197 1.0
112 198 1.0
113 3 -50.0
113 108 1.0
113 116 1.0
113 124 1.0
113 132 1.0
113 140 1.0
113 199 1.0
113 200 1.0
113 201 1.0
113 202 1.0
113 203 1.0
113 204 1.0
113 205 1.0
114 4 -570.0
114 109 1.0
114 117 1.0
114 125 1.0
114 133 1.0
114 141 1.0
114 206 1.0
114 207 1.0
114 208 1.0
114 209 1.0
114 210 1.0
114 211 1.0
114 212 1.0
115 5 -100.0
115 110 1.0
115 118 1.0
115 126 1.0
115 134 1.0
115 142 1.0
115 213 1.0
115 214 1.0
115 215 1.0
115 216 1.0
115 217 1.0
115 218 1.0
115 219 1.0
116 6 -30.0
116 111 1.0
116 119 1.0
116 127 1.0
116 135 1.0
116 143 1.0
116 220 1.0
116 221 1.0
116 222 1.0
116 223 1.0
116 224 1.0
116 225 1.0
116 226 1.0
117 7 -640.0
117 112 1.0
117 120 1.0
117 128 1.0
117 136 1.0
117 144 1.0
117 227 1.0
117 228 1.0
117 229 1.0
117 230 1.0
117 231 1.0
117 232 1.0
117 233 1.0
118 106 0.9
118 114 0.9
118 122 0.9
118 130 0.9
118 138 0.9
118 185 0.9
118 186 0.9
118 187 0.9
118 188 0.9
118 189 0.9
118 190 0.9
118 191 0.9
118 234 -1.0
119 107 0.6
119 115 0.6
119 123 0.6
119 131 0.6
119 139 0.6
119 192 0.6
119 193 0.6
119 194 0.6
119 195 0.6
119 196 0.6
119 197 0.6
119 198 0.6
119 235 -1.0
120 108 0.15
120 116 0.15
120 124 0.15
120 132 0.15
120 140 0.15
120 199 0.15
120 200 0.15
120 201 0.15
120 202 0.15
120 203 0.15
120 204 0.15
120 205 0.15
120 236 -1.0
121 109 0.26
121 117 0.26
121 125 0.26
121 133 0.26
121 141 0.26
121 206 0.26
121 207 0.26
121 208 0.26
121 209 0.26
121 210 0.26
121 211 0.26
121 212 0.26
121 237 -1.0
122 110 0.1
122 118 0.1
122 126 0.1
122 134 0.1
122 142 0.1
122 213 0.1
122 214 0.1
122 215 0.1
122 216 0.1
122 217 0.1
122 218 0.1
122 219 0.1
122 238 -1.0
123 111 0.4
123 119 0.4
123 127 0.4
123 135 0.4
123 143 0.4
123 220 0.4
123 221 0.4
123 222 0.4
123 223 0.4
123 224 0.4
123 225 0.4
123 226 0.4
123 239 -1.0
124 112 0.3
124 120 0.3
124 128 0.3
124 136 0.3
124 144 0.3
124 227 0.3
124 228 0.3
124 229 0.3
124 230 0.3
124 231 0.3
124 232 0.3
124 233 0.3
124 240 -1.0
125 185 -1.0
125 192 -1.0
125 199 -1.0
125 206 -1.0
125 213 -1.0
125 220 -1.0
125 227 -1.0
125 234 1.0
125 241 -1.0
126 186 -1.0
126 193 -1.0
126 200 -1.0
126 207 -1.0
126 214 -1.0
126 221 -1.0
126 228 -1.0
126 235 1.0
126 242 -1.0
127 187 -1.0
127 194 -1.0
127 201 -1.0
127 208 -1.0
127 215 -1.0
127 222 -1.0
127 229 -1.0
127 236 1.0
127 243 -1.0
128 188 -1.0
128 195 -1.0
128 202 -1.0
128 209 -1.0
128 216 -1.0
128 223 -1.0
128 230 -1.0
128 237 1.0
128 244 -1.0
129 189 -1.0
129 196 -1.0
129 203 -1.0
129 210 -1.0
129 217 -1.0
129 224 -1.0
129 231 -1.0
129 238 1.0
129 245 -1.0
130 190 -1.0
130 197 -1.0
130 204 -1.0
130 211 -1.0
130 218 -1.0
130 225 -1.0
130 232 -1.0
130 239 1.0
130 246 -1.0
131 191 -1.0
131 198 -1.0
131 205 -1.0
131 212 -1.0
131 219 -1.0
131 226 -1.0
131 233 -1.0
131 240 1.0
131 247 -1.0
132 248 1.0
132 249 1.0
132 250 1.0
132 251 1.0
132 252 1.0
132 253 1.0
132 254 1.0
132 255 1.0
133 256 1.0
133 257 1.0
133 258 1.0
133 259 1.0
133 260 1.0
133 261 1.0
133 262 1.0
133 263 1.0
134 264 1.0
134 265 1.0
134 266 1.0
134 267 1.0
134 268 1.0
134 269 1.0
134 270 1.0
134 271 1.0
135 272 1.0
135 273 1.0
135 274 1.0
135 275 1.0
135 276 1.0
135 277 1.0
135 278 1.0
135 279 1.0
136 280 1.0
136 281 1.0
136 282 1.0
136 283 1.0
136 284 1.0
136 285 1.0
136 286 1.0
136 287 1.0
137 288 1.0
137 289 1.0
137 290 1.0
137 291 1.0
137 292 1.0
137 293 1.0
137 294 1.0
137 295 1.0
138 296 1.0
138 297 1.0
138 298 1.0
138 299 1.0
138 300 1.0
138 301 1.0
138 302 1.0
138 303 1.0
139 104 -4.0
139 105 1.0
139 113 1.0
139 121 1.0
139 129 1.0
139 137 1.0
139 241 1.0
139 242 1.0
139 243 1.0
139 244 1.0
139 245 1.0
139 246 1.0
139 247 1.0
140 185 -1.0
141 192 -1.0
142 199 -1.0
143 206 -1.0
144 213 -1.0
145 220 -1.0
146 227 -1.0
147 186 -1.0
148 193 -1.0
149 200 -1.0
150 207 -1.0
151 214 -1.0
152 221 -1.0
153 228 -1.0
154 187 -1.0
155 194 -1.0
156 201 -1.0
157 208 -1.0
158 215 -1.0
159 222 -1.0
160 229 -1.0
161 188 -1.0
162 195 -1.0
163 202 -1.0
164 209 -1.0
165 216 -1.0
166 223 -1.0
167 230 -1.0
168 189 -1.0
169 196 -1.0
170 203 -1.0
171 210 -1.0
172 217 -1.0
173 224 -1.0
174 231 -1.0
175 190 -1.0
176 197 -1.0
177 204 -1.0
178 211 -1.0
179 218 -1.0
180 225 -1.0
181 232 -1.0
182 191 -1.0
183 198 -1.0
184 205 -1.0
185 212 -1.0
186 219 -1.0
187 226 -1.0
188 233 -1.0
189 241 -1.0
190 242 -1.0
191 243 -1.0
192 244 -1.0
193 245 -1.0
194 246 -1.0
195 247 -1.0
196 48 -1.0
197 55 -1.0
198 62 -1.0
199 69 -1.0
200 76 -1.0
201 83 -1.0
202 90 -1.0
203 49 -1.0
204 56 -1.0
205 63 -1.0
206 70 -1.0
207 77 -1.0
208 84 -1.0
209 91 -1.0
210 50 -1.0
211 57 -1.0
212 64 -1.0
213 71 -1.0
214 78 -1.0
215 85 -1.0
216 92 -1.0
217 51 -1.0
218 58 -1.0
219 65 -1.0
220 72 -1.0
221 79 -1.0
222 86 -1.0
223 93 -1.0
224 52 -1.0
225 59 -1.0
226 66 -1.0
227 73 -1.0
228 80 -1.0
229 87 -1.0
230 94 -1.0
231 53 -1.0
232 60 -1.0
233 67 -1.0
234 74 -1.0
235 81 -1.0
236 88 -1.0
237 95 -1.0
238 54 -1.0
239 61 -1.0
240 68 -1.0
241 75 -1.0
242 82 -1.0
243 89 -1.0
244 96 -1.0
245 97 -1.0
246 98 -1.0
247 99 -1.0
248 100 -1.0
249 101 -1.0
250 102 -1.0
251 103 -1.0
1.79769313486232E+308 # value for infinity
0.0 # default left-hand-side value
30 # number of non-default left-hand-sides
1 -80.0
2 -450.0
3 -230.0
4 -90.0
5 -330.0
21 -960.0
22 -22500.0
23 -115000.0
24 -36000.0
25 -39600.0
106 1.0
107 1.0
108 1.0
109 1.0
110 1.0
111 -1.79769313486232E+308
112 -1.79769313486232E+308
113 -1.79769313486232E+308
114 -1.79769313486232E+308
115 -1.79769313486232E+308
116 -1.79769313486232E+308
117 -1.79769313486232E+308
132 1.0
133 1.0
134 1.0
135 1.0
136 1.0
137 1.0
138 1.0
139 -1.79769313486232E+308
0.0 # default right-hand-side value
22 # number of non-default right-hand-sides
1 -80.0
2 -450.0
3 -230.0
4 -90.0
5 -330.0
21 -960.0
22 -22500.0
23 -115000.0
24 -36000.0
25 -39600.0
106 1.0
107 1.0
108 1.0
109 1.0
110 1.0
132 1.0
133 1.0
134 1.0
135 1.0
136 1.0
137 1.0
138 1.0
0.0 # default variable lower bound value
0 # number of non-default variable lower bounds
1000000.0 # default variable upper bound value
0 # number of non-default variable upper bounds
0.0 # default variable primal value in starting point
0 # number of non-default variable primal values in starting point
0.0 # default constraint dual value in starting point
0 # number of non-default constraint dual values in starting point
0.0 # default variable bound dual value in starting point
0 # number of non-default variable bound dual values in starting point
0 # number of non-default variable names
0 # number of non-default constraint names
